5	19	14	1	1	19	12	5	17	6	9	3	15	7	8	12	20	16	15	4	18	15	16	13	3	5	8	18	9	10	10	17	11	15	10	16	3	6	4	11	6	6	9	14	5	14	6	14	11	9
20	1	19	4	18	8	13	15	18	14	7	13	17	13	10	4	14	10	20	13	5	10	3	13	11	13	11	1	8	10	1	20	17	18	3	12	10	15	1	18	4	8	12	1	9	19	16	11	5	18
9	5	15	5	4	1	5	16	7	10	20	10	19	3	17	9	18	12	11	6	5	12	14	11	7	9	7	9	14	16	13	1	5	19	8	2	13	11	10	16	19	12	10	17	13	3	9	8	20	2
13	15	3	7	12	3	13	7	15	7	7	2	3	7	1	5	7	11	9	18	3	7	7	7	2	15	16	10	19	11	10	2	5	15	12	19	8	1	15	20	9	18	19	6	4	16	6	14	1	8
